mmax                 = 1950
nmax                 = 1550
dx                   = 200
dy                   = 200
x0                   = 512726.0
y0                   = 2335987.0
rotation             = 0
epsg                 = 32649
latitude             = 0.0
tref                 = 19750704 190000
tstart               = 19750704 190000
tstop                = 19750709 190000
tspinup              = 0.0
dtout                = 432000
dthisout             = 600.0
dtrstout             = 0.0
dtmaxout             = 432000
trstout              = -999.0
dtwnd                = 3600
alpha                = 0.5
theta                = 1.0
huthresh             = 0.01
zsini                = 0.0
qinf                 = 0.0
rhoa                 = 1.25
rhow                 = 1024.0
dtmax                = 60.0
advection            = 1
baro                 = 1
pavbnd               = 0
gapres               = 101200.0
stopdepth            = 100.0
crsgeo               = 0
btfilter             = 60.0
viscosity            = 1
depfile              = sfincs.dep
mskfile              = sfincs.msk
indexfile            = sfincs.ind
bndfile              = sfincs.bnd
bzsfile              = sfincs.bzs
srcfile              = sfincs.src
disfile              = sfincs.dis
manningfile          = sfincs.man
inputformat          = bin
outputformat         = net
cdnrb                = 3
cdwnd                = 0.0 28.0 50.0
cdval                = 0.001 0.0025 0.0015
wind                 = 1
netamuamvfile        = sfincs_wind.nc
netampfile           = sfincs_pressure.nc
netamprfile          = sfincs_precipitation.nc
ampr_block           = 1
